\* Dreamteam *\
Maximize
OBJ: 4.32626628876 x_0 + 4.6699385643 x_1 + 39.4552230835 x_10
 + 19.7616233826 x_11 + 41.2974624634 x_12 + 14.7144374847 x_13
 + 1.63666319847 x_14 + 25.8824272156 x_15 - 0.489599168301 x_16
 + 47.8434867859 x_17 + 4.92018604279 x_18 + 26.5623264313 x_19
 + 32.3938674927 x_2 + 7.85014486313 x_20 + 17.6984119415 x_21
 + 1.48568630219 x_3 + 15.2842683792 x_4 + 4.13325119019 x_5
 + 5.83582687378 x_6 + 72.4149017334 x_7 + 29.5931682587 x_8
 + 6.27388906479 x_9
Subject To
_C1: x_0 + x_12 + x_20 + x_8 >= 1
_C10: 8.5 x_0 + 8.5 x_1 + 9.5 x_10 + 10 x_11 + 9.5 x_12 + 9.5 x_13 + 8.5 x_14
 + 9 x_15 + 8.5 x_16 + 8.5 x_17 + 8.5 x_18 + 9 x_19 + 8 x_2 + 8.5 x_20
 + 8 x_21 + 8.5 x_3 + 9.5 x_4 + 8.5 x_5 + 10 x_6 + 8.5 x_7 + 8 x_8 + 8 x_9
 <= 100
_C11: x_0 + x_1 + x_10 + x_2 + x_3 + x_4 + x_5 + x_6 + x_7 + x_8 + x_9 <= 7
_C12: x_11 + x_12 + x_13 + x_14 + x_15 + x_16 + x_17 + x_18 + x_19 + x_20
 + x_21 <= 7
_C2: x_0 + x_12 + x_20 + x_8 <= 4
_C3: x_1 + x_11 + x_13 + x_17 + x_21 + x_6 >= 3
_C4: x_1 + x_11 + x_13 + x_17 + x_21 + x_6 <= 6
_C5: x_10 + x_16 + x_18 + x_4 >= 1
_C6: x_10 + x_16 + x_18 + x_4 <= 4
_C7: x_14 + x_15 + x_19 + x_2 + x_3 + x_5 + x_7 + x_9 >= 3
_C8: x_14 + x_15 + x_19 + x_2 + x_3 + x_5 + x_7 + x_9 <= 6
_C9: x_0 + x_1 + x_10 + x_11 + x_12 + x_13 + x_14 + x_15 + x_16 + x_17 + x_18
 + x_19 + x_2 + x_20 + x_21 + x_3 + x_4 + x_5 + x_6 + x_7 + x_8 + x_9 = 11
Binaries
x_0
x_1
x_10
x_11
x_12
x_13
x_14
x_15
x_16
x_17
x_18
x_19
x_2
x_20
x_21
x_3
x_4
x_5
x_6
x_7
x_8
x_9
End
